words_hard_train/42.qaiger
aag 144 24 0 1 120
2
4
8
12
16
20
24
32
34
42
44
48
52
60
64
68
80
96
116
124
142
152
184
266
289
6 3 5
10 6 9
14 10 13
18 14 17
22 18 21
26 22 25
28 23 24
30 27 29
36 32 34
38 33 35
40 37 39
46 42 44
50 48 44
54 51 53
56 55 44
58 47 57
62 58 61
66 62 65
70 66 69
72 71 44
74 40 72
76 41 73
78 75 77
82 80 68
84 81 69
86 83 85
88 67 44
90 86 89
92 87 88
94 91 93
98 96 64
100 97 65
102 99 101
104 63 44
106 102 104
108 103 105
110 107 109
112 59 60
114 113 63
118 114 116
120 115 117
122 119 121
126 124 42
128 125 43
130 127 129
132 130 56
134 131 57
136 133 135
138 50 52
140 139 55
144 140 143
146 141 142
148 145 147
150 137 148
154 152 49
156 153 48
158 155 157
160 150 158
162 123 160
164 111 162
166 94 164
168 79 166
170 31 168
172 122 161
174 173 163
176 2 4
178 177 7
180 179 136
182 181 161
186 159 184
188 187 2
190 178 137
192 189 191
194 186 3
196 195 148
198 192 197
200 182 199
202 7 8
204 203 11
206 200 204
208 175 207
210 201 205
212 209 211
214 11 12
216 215 15
218 110 163
220 219 165
222 217 221
224 212 223
226 216 220
228 225 227
230 15 16
232 231 19
234 95 165
236 235 167
238 232 236
240 228 239
242 233 237
244 241 243
246 19 20
248 247 23
250 78 167
252 251 169
254 248 252
256 245 255
258 249 253
260 257 259
262 70 44
264 262 35
268 264 267
270 265 266
272 269 271
274 260 273
276 170 275
278 261 272
280 279 171
282 277 281
284 30 169
286 284 275
288 283 287
i0 1 x1[1]
i1 1 x1[2]
i2 1 x1[3]
i3 1 x1[4]
i4 1 x1[5]
i5 1 x1[6]
i6 1 x1[7]
i7 2 y2[6]
i8 1 x2[6]
i9 1 x2[2]
i10 1 x2[7]
i11 1 x2[0]
i12 1 x2[1]
i13 1 x2[3]
i14 1 x2[4]
i15 1 x2[5]
i16 2 y2[5]
i17 2 y2[4]
i18 2 y2[3]
i19 2 y2[2]
i20 2 y2[1]
i21 2 y2[0]
i22 1 x1[0]
i23 2 y2[7]
o0 bv[0]
c
simplified
  >
    xor
      abs
        1 x2
      2 y2
    subtract
      1
      1 x1
