words_hard_train/42.qaiger.qdimacs
p cnf 144 361
a 32 1 2 34 4 6 8 10 12 17 21 22 24 26 92 30 0
e 3 5 7 9 11 13 14 15 16 18 19 20 23 25 27 28 29 31 33 35 36 37 38 39 40 41 42 43 44 45 46 47 48 49 50 51 52 53 54 55 56 57 58 59 60 61 62 63 64 65 66 67 68 69 70 71 72 73 74 75 76 77 78 79 80 81 82 83 84 85 86 87 88 89 90 91 93 94 95 96 97 98 99 100 101 102 103 104 105 106 107 108 109 110 111 112 113 114 115 116 117 118 119 120 121 122 123 124 125 126 127 128 129 130 131 132 133 134 135 136 137 138 139 140 141 142 143 144 0
1 2 3 0
-1 -3 0
-2 -3 0
-3 4 5 0
3 -5 0
-4 -5 0
-5 6 7 0
5 -7 0
-6 -7 0
-7 8 9 0
7 -9 0
-8 -9 0
-9 10 11 0
9 -11 0
-10 -11 0
-11 12 13 0
11 -13 0
-12 -13 0
11 -12 14 0
-11 -14 0
12 -14 0
13 14 15 0
-13 -15 0
-14 -15 0
-16 -17 18 0
16 -18 0
17 -18 0
16 17 19 0
-16 -19 0
-17 -19 0
18 19 20 0
-18 -20 0
-19 -20 0
-21 -22 23 0
21 -23 0
22 -23 0
-24 -22 25 0
24 -25 0
22 -25 0
25 26 27 0
-25 -27 0
-26 -27 0
27 -22 28 0
-27 -28 0
22 -28 0
23 28 29 0
-23 -29 0
-28 -29 0
-29 30 31 0
29 -31 0
-30 -31 0
-31 32 33 0
31 -33 0
-32 -33 0
-33 34 35 0
33 -35 0
-34 -35 0
35 -22 36 0
-35 -36 0
22 -36 0
-20 -36 37 0
20 -37 0
36 -37 0
20 36 38 0
-20 -38 0
-36 -38 0
37 38 39 0
-37 -39 0
-38 -39 0
-40 -34 41 0
40 -41 0
34 -41 0
40 34 42 0
-40 -42 0
-34 -42 0
41 42 43 0
-41 -43 0
-42 -43 0
33 -22 44 0
-33 -44 0
22 -44 0
-43 44 45 0
43 -45 0
-44 -45 0
43 -44 46 0
-43 -46 0
44 -46 0
45 46 47 0
-45 -47 0
-46 -47 0
-48 -32 49 0
48 -49 0
32 -49 0
48 32 50 0
-48 -50 0
-32 -50 0
49 50 51 0
-49 -51 0
-50 -51 0
31 -22 52 0
-31 -52 0
22 -52 0
-51 -52 53 0
51 -53 0
52 -53 0
51 52 54 0
-51 -54 0
-52 -54 0
53 54 55 0
-53 -55 0
-54 -55 0
29 -30 56 0
-29 -56 0
30 -56 0
56 31 57 0
-56 -57 0
-31 -57 0
-57 -58 59 0
57 -59 0
58 -59 0
57 58 60 0
-57 -60 0
-58 -60 0
59 60 61 0
-59 -61 0
-60 -61 0
-62 -21 63 0
62 -63 0
21 -63 0
62 21 64 0
-62 -64 0
-21 -64 0
63 64 65 0
-63 -65 0
-64 -65 0
-65 -28 66 0
65 -66 0
28 -66 0
65 28 67 0
-65 -67 0
-28 -67 0
66 67 68 0
-66 -68 0
-67 -68 0
-25 -26 69 0
25 -69 0
26 -69 0
69 27 70 0
-69 -70 0
-27 -70 0
-70 71 72 0
70 -72 0
-71 -72 0
70 -71 73 0
-70 -73 0
71 -73 0
72 73 74 0
-72 -74 0
-73 -74 0
68 -74 75 0
-68 -75 0
74 -75 0
-76 24 77 0
76 -77 0
-24 -77 0
76 -24 78 0
-76 -78 0
24 -78 0
77 78 79 0
-77 -79 0
-78 -79 0
-75 -79 80 0
75 -80 0
79 -80 0
61 -80 81 0
-61 -81 0
80 -81 0
55 -81 82 0
-55 -82 0
81 -82 0
-47 -82 83 0
47 -83 0
82 -83 0
39 -83 84 0
-39 -84 0
83 -84 0
15 -84 85 0
-15 -85 0
84 -85 0
-61 80 86 0
61 -86 0
-80 -86 0
86 81 87 0
-86 -87 0
-81 -87 0
-1 -2 88 0
1 -88 0
2 -88 0
88 3 89 0
-88 -89 0
-3 -89 0
89 -68 90 0
-89 -90 0
68 -90 0
90 80 91 0
-90 -91 0
-80 -91 0
79 -92 93 0
-79 -93 0
92 -93 0
93 -1 94 0
-93 -94 0
1 -94 0
-89 68 95 0
89 -95 0
-68 -95 0
94 95 96 0
-94 -96 0
-95 -96 0
-93 1 97 0
93 -97 0
-1 -97 0
97 -74 98 0
-97 -98 0
74 -98 0
-96 98 99 0
96 -99 0
-98 -99 0
-91 99 100 0
91 -100 0
-99 -100 0
3 -4 101 0
-3 -101 0
4 -101 0
101 5 102 0
-101 -102 0
-5 -102 0
-100 -102 103 0
100 -103 0
102 -103 0
87 103 104 0
-87 -104 0
-103 -104 0
100 102 105 0
-100 -105 0
-102 -105 0
104 105 106 0
-104 -106 0
-105 -106 0
5 -6 107 0
-5 -107 0
6 -107 0
107 7 108 0
-107 -108 0
-7 -108 0
-55 81 109 0
55 -109 0
-81 -109 0
109 82 110 0
-109 -110 0
-82 -110 0
108 110 111 0
-108 -111 0
-110 -111 0
-106 111 112 0
106 -112 0
-111 -112 0
-108 -110 113 0
108 -113 0
110 -113 0
112 113 114 0
-112 -114 0
-113 -114 0
7 -8 115 0
-7 -115 0
8 -115 0
115 9 116 0
-115 -116 0
-9 -116 0
47 82 117 0
-47 -117 0
-82 -117 0
117 83 118 0
-117 -118 0
-83 -118 0
-116 -118 119 0
116 -119 0
118 -119 0
-114 119 120 0
114 -120 0
-119 -120 0
116 118 121 0
-116 -121 0
-118 -121 0
120 121 122 0
-120 -122 0
-121 -122 0
9 -10 123 0
-9 -123 0
10 -123 0
123 11 124 0
-123 -124 0
-11 -124 0
-39 83 125 0
39 -125 0
-83 -125 0
125 84 126 0
-125 -126 0
-84 -126 0
-124 -126 127 0
124 -127 0
126 -127 0
122 127 128 0
-122 -128 0
-127 -128 0
124 126 129 0
-124 -129 0
-126 -129 0
128 129 130 0
-128 -130 0
-129 -130 0
-35 -22 131 0
35 -131 0
22 -131 0
-131 17 132 0
131 -132 0
-17 -132 0
-132 133 134 0
132 -134 0
-133 -134 0
132 -133 135 0
-132 -135 0
133 -135 0
134 135 136 0
-134 -136 0
-135 -136 0
-130 136 137 0
130 -137 0
-136 -137 0
-85 137 138 0
85 -138 0
-137 -138 0
130 -136 139 0
-130 -139 0
136 -139 0
139 85 140 0
-139 -140 0
-85 -140 0
138 140 141 0
-138 -141 0
-140 -141 0
-15 84 142 0
15 -142 0
-84 -142 0
-142 137 143 0
142 -143 0
-137 -143 0
141 143 144 0
-141 -144 0
-143 -144 0
-144 0
